c NeuroCodeBench 2.0 CNF formula with verdict Unsat
p cnf 21 42
-1 7 -2 15 -11 0
-1 7 -2 -15 18 0
1 12 4 18 20 0
1 -12 -4 20 -5 8 10 0
1 -12 -4 20 -5 -8 0
-1 -7 -3 -21 -10 -15 -5 0
-1 -7 -3 21 -10 0
1 12 -4 18 0
1 12 4 18 -20 -21 0
1 -12 4 16 -15 -19 0
-1 -7 -3 21 10 2 0
-1 7 2 5 18 0
-1 -7 3 -21 -13 0
-1 -7 3 -21 13 -16 0
-1 -7 3 21 -19 -2 16 0
1 12 4 18 -20 21 19 0
1 -12 4 16 -15 19 0
1 12 4 -18 0
1 -12 -4 -20 0
1 -12 4 16 15 17 0
1 -12 -4 20 -5 8 -10 2 0
-1 7 2 -5 0
-1 -7 3 21 19 0
-1 -7 -3 21 10 -2 0
1 12 -4 -18 14 0
1 -12 4 -16 0
-1 7 2 5 -18 11 0
-1 -7 3 21 -19 2 -18 0
1 -12 4 16 15 -17 0
-1 7 -2 15 11 0
-1 -7 -3 -21 10 0
-1 -7 -3 -21 -10 15 0
-1 7 -2 -15 -18 0
1 12 4 18 -20 21 -19 0
-1 7 2 5 -18 -11 0
-1 -7 -3 -21 -10 -15 5 0
-1 -7 3 -21 13 16 0
1 12 -4 -18 -14 0
-1 -7 3 21 -19 2 18 0
1 -12 -4 20 -5 8 -10 -2 0
-1 -7 3 21 -19 -2 -16 0
1 -12 -4 20 5 0
